objective value:                                   -7
t_n_5                                               1 	(obj:-1)
t_n_321                                             1 	(obj:-1)
t_n_515                                             1 	(obj:-1)
t_n_668                                             1 	(obj:-1)
t_n_715                                             1 	(obj:-1)
t_n_800                                             1 	(obj:-1)
t_n_980                                             1 	(obj:-1)
